TYPE : Vertex Cover
DIMENSION: 20
EDGE_DATA_SECTION:
0 8
1 3
1 10
1 13
1 17
2 5
2 7
2 10
2 15
2 17
3 5
3 13
6 17
8 15
8 17
9 15
9 16
10 16
11 14
12 15
12 17
14 15
15 19
16 19
18 19
-1
VERTEX_DEGREE:
1.0 4.0 5.0 3.0 0.0 2.0 1.0 1.0 3.0 2.0 3.0 1.0 2.0 2.0 2.0 6.0 3.0 5.0 1.0 3.0
VERTEX_COVER:
1 2 3 8 14 15 16 17 19
EOF
